Minimize
	value: tt

Subject to
tt + 1000 s_1_1 > 0.0
tt - t_1_1 - 1000.000000 s_1_1  + 0.000000 s_1_8  + 0.000000 s_1_7  > -990.961200
tt + 1000 s_2_1 > 0.0
tt - t_2_1 - 1000.000000 s_2_1  + 0.000000 s_2_8  + 0.000000 s_2_7  > -978.373221
tt + 1000 s_1_2 > 0.0
tt - t_1_2 - 1000.000000 s_1_2  + 0.000000 s_1_7  > -991.217822
tt + 1000 s_2_2 > 0.0
tt - t_2_2 - 1000.000000 s_2_2  + 0.000000 s_2_7  > -978.795073
tt + 1000 s_1_3 > 0.0
tt - t_1_3 - 1000.000000 s_1_3  + 0.000000 s_1_8  > -998.941978
tt + 1000 s_2_3 > 0.0
tt - t_2_3 - 1000.000000 s_2_3  + 0.000000 s_2_8  > -997.406781
tt + 1000 s_1_4 > 0.0
tt - t_1_4 - 1000.000000 s_1_4  + 0.000000 s_1_7  > -998.234489
tt + 1000 s_2_4 > 0.0
tt - t_2_4 - 1000.000000 s_2_4  + 0.000000 s_2_7  > -995.115765
tt + 1000 s_1_5 > 0.0
tt - t_1_5 - 1000.000000 s_1_5  + 0.000000 s_1_8  > -996.041200
tt + 1000 s_2_5 > 0.0
tt - t_2_5 - 1000.000000 s_2_5  + 0.000000 s_2_8  > -990.691421
tt + 1000 s_1_6 > 0.0
tt - t_1_6 - 1000.000000 s_1_6  + 0.000000 s_1_7  > -999.300200
tt + 1000 s_2_6 > 0.0
tt - t_2_6 - 1000.000000 s_2_6  + 0.000000 s_2_7  > -998.130111
tt + 1000 s_1_7 > 0.0
tt - t_1_7 - 1000.000000 s_1_7  > -987.918400
tt + 1000 s_2_7 > 0.0
tt - t_2_7 - 1000.000000 s_2_7  > -963.798827
tt + 1000 s_1_8 > 0.0
tt - t_1_8 - 1000.000000 s_1_8  > -988.185900
tt + 1000 s_2_8 > 0.0
tt - t_2_8 - 1000.000000 s_2_8  > -968.252666
s_1_1 + s_2_1 = 1
s_1_2 + s_2_2 = 1
s_1_3 + s_2_3 = 1
s_1_4 + s_2_4 = 1
s_1_5 + s_2_5 = 1
s_1_6 + s_2_6 = 1
s_1_7 + s_2_7 = 1
s_1_8 + s_2_8 = 1
s_1_1 + s_1_2 + 1000 r_1_1_2 >= 2
- s_1_1 - s_1_2 - 1000 r_1_1_2 >= -1001
t_1_1 - t_1_2 - 1000.000000 u_1_1_2 - 0.000000 s_1_2  + 0.000000 s_1_7  + 2000.000000 r_1_1_2 > -991.217822
s_2_1 + s_2_2 + 1000 r_2_1_2 >= 2
- s_2_1 - s_2_2 - 1000 r_2_1_2 >= -1001
t_2_1 - t_2_2 - 1000.000000 u_2_1_2 - 0.000000 s_2_2  + 0.000000 s_2_7  + 2000.000000 r_2_1_2 > -978.795073
s_1_1 + s_1_3 + 1000 r_1_1_3 >= 2
- s_1_1 - s_1_3 - 1000 r_1_1_3 >= -1001
t_1_1 - t_1_3 - 1000.000000 u_1_1_3 - 0.000000 s_1_3  + 0.000000 s_1_8  + 2000.000000 r_1_1_3 > -998.941978
s_2_1 + s_2_3 + 1000 r_2_1_3 >= 2
- s_2_1 - s_2_3 - 1000 r_2_1_3 >= -1001
t_2_1 - t_2_3 - 1000.000000 u_2_1_3 - 0.000000 s_2_3  + 0.000000 s_2_8  + 2000.000000 r_2_1_3 > -997.406781
s_1_1 + s_1_4 + 1000 r_1_1_4 >= 2
- s_1_1 - s_1_4 - 1000 r_1_1_4 >= -1001
t_1_1 - t_1_4 - 1000.000000 u_1_1_4 - 0.000000 s_1_4  + 0.000000 s_1_7  + 2000.000000 r_1_1_4 > -998.234489
s_2_1 + s_2_4 + 1000 r_2_1_4 >= 2
- s_2_1 - s_2_4 - 1000 r_2_1_4 >= -1001
t_2_1 - t_2_4 - 1000.000000 u_2_1_4 - 0.000000 s_2_4  + 0.000000 s_2_7  + 2000.000000 r_2_1_4 > -995.115765
s_1_1 + s_1_5 + 1000 r_1_1_5 >= 2
- s_1_1 - s_1_5 - 1000 r_1_1_5 >= -1001
t_1_1 - t_1_5 - 1000.000000 u_1_1_5 - 0.000000 s_1_5  + 0.000000 s_1_8  + 2000.000000 r_1_1_5 > -996.041200
s_2_1 + s_2_5 + 1000 r_2_1_5 >= 2
- s_2_1 - s_2_5 - 1000 r_2_1_5 >= -1001
t_2_1 - t_2_5 - 1000.000000 u_2_1_5 - 0.000000 s_2_5  + 0.000000 s_2_8  + 2000.000000 r_2_1_5 > -990.691421
t_1_6 - t_1_1 - 1000.000000 s_1_1  + 0.000000 s_1_8  + 0.000000 s_1_7  > -990.961200
t_1_6 - t_2_1 - 1000.000000 s_2_1  + 0.000000 s_2_8  + 0.000000 s_2_7  > -978.373221
t_2_6 - t_1_1 - 1000.000000 s_1_1  + 0.000000 s_1_8  + 0.000000 s_1_7  > -990.961200
t_2_6 - t_2_1 - 1000.000000 s_2_1  + 0.000000 s_2_8  + 0.000000 s_2_7  > -978.373221
t_1_1 - t_1_7 - 1000.000000 s_1_7  > -987.918400
t_1_1 - t_2_7 - 1000.000000 s_2_7  > -963.798827
t_2_1 - t_1_7 - 1000.000000 s_1_7  > -987.918400
t_2_1 - t_2_7 - 1000.000000 s_2_7  > -963.798827
t_1_1 - t_1_8 - 1000.000000 s_1_8  > -988.185900
t_1_1 - t_2_8 - 1000.000000 s_2_8  > -968.252666
t_2_1 - t_1_8 - 1000.000000 s_1_8  > -988.185900
t_2_1 - t_2_8 - 1000.000000 s_2_8  > -968.252666
s_1_2 + s_1_1 + 1000 r_1_1_2 >= 2
- s_1_2 - s_1_1 - 1000 r_1_1_2 >= -1001
t_1_2 - t_1_1 + 1000.000000 u_1_1_2 - 0.000000 s_1_1  + 0.000000 s_1_8  + 0.000000 s_1_7  + 2000.000000 r_1_1_2 > 9.038800
s_2_2 + s_2_1 + 1000 r_2_1_2 >= 2
- s_2_2 - s_2_1 - 1000 r_2_1_2 >= -1001
t_2_2 - t_2_1 + 1000.000000 u_2_1_2 - 0.000000 s_2_1  + 0.000000 s_2_8  + 0.000000 s_2_7  + 2000.000000 r_2_1_2 > 21.626779
s_1_2 + s_1_3 + 1000 r_1_2_3 >= 2
- s_1_2 - s_1_3 - 1000 r_1_2_3 >= -1001
t_1_2 - t_1_3 - 1000.000000 u_1_2_3 - 0.000000 s_1_3  + 0.000000 s_1_8  + 2000.000000 r_1_2_3 > -998.941978
s_2_2 + s_2_3 + 1000 r_2_2_3 >= 2
- s_2_2 - s_2_3 - 1000 r_2_2_3 >= -1001
t_2_2 - t_2_3 - 1000.000000 u_2_2_3 - 0.000000 s_2_3  + 0.000000 s_2_8  + 2000.000000 r_2_2_3 > -997.406781
s_1_2 + s_1_4 + 1000 r_1_2_4 >= 2
- s_1_2 - s_1_4 - 1000 r_1_2_4 >= -1001
t_1_2 - t_1_4 - 1000.000000 u_1_2_4 - 0.000000 s_1_4  + 0.000000 s_1_7  + 2000.000000 r_1_2_4 > -998.234489
s_2_2 + s_2_4 + 1000 r_2_2_4 >= 2
- s_2_2 - s_2_4 - 1000 r_2_2_4 >= -1001
t_2_2 - t_2_4 - 1000.000000 u_2_2_4 - 0.000000 s_2_4  + 0.000000 s_2_7  + 2000.000000 r_2_2_4 > -995.115765
s_1_2 + s_1_5 + 1000 r_1_2_5 >= 2
- s_1_2 - s_1_5 - 1000 r_1_2_5 >= -1001
t_1_2 - t_1_5 - 1000.000000 u_1_2_5 - 0.000000 s_1_5  + 0.000000 s_1_8  + 2000.000000 r_1_2_5 > -996.041200
s_2_2 + s_2_5 + 1000 r_2_2_5 >= 2
- s_2_2 - s_2_5 - 1000 r_2_2_5 >= -1001
t_2_2 - t_2_5 - 1000.000000 u_2_2_5 - 0.000000 s_2_5  + 0.000000 s_2_8  + 2000.000000 r_2_2_5 > -990.691421
t_1_6 - t_1_2 - 1000.000000 s_1_2  + 0.000000 s_1_7  > -991.217822
t_1_6 - t_2_2 - 1000.000000 s_2_2  + 0.000000 s_2_7  > -978.795073
t_2_6 - t_1_2 - 1000.000000 s_1_2  + 0.000000 s_1_7  > -991.217822
t_2_6 - t_2_2 - 1000.000000 s_2_2  + 0.000000 s_2_7  > -978.795073
t_1_2 - t_1_7 - 1000.000000 s_1_7  > -987.918400
t_1_2 - t_2_7 - 1000.000000 s_2_7  > -963.798827
t_2_2 - t_1_7 - 1000.000000 s_1_7  > -987.918400
t_2_2 - t_2_7 - 1000.000000 s_2_7  > -963.798827
s_1_2 + s_1_8 + 1000 r_1_2_8 >= 2
- s_1_2 - s_1_8 - 1000 r_1_2_8 >= -1001
t_1_2 - t_1_8 - 1000.000000 u_1_2_8 - 0.000000 s_1_8  + 2000.000000 r_1_2_8 > -988.185900
s_2_2 + s_2_8 + 1000 r_2_2_8 >= 2
- s_2_2 - s_2_8 - 1000 r_2_2_8 >= -1001
t_2_2 - t_2_8 - 1000.000000 u_2_2_8 - 0.000000 s_2_8  + 2000.000000 r_2_2_8 > -968.252666
s_1_3 + s_1_1 + 1000 r_1_1_3 >= 2
- s_1_3 - s_1_1 - 1000 r_1_1_3 >= -1001
t_1_3 - t_1_1 + 1000.000000 u_1_1_3 - 0.000000 s_1_1  + 0.000000 s_1_8  + 0.000000 s_1_7  + 2000.000000 r_1_1_3 > 9.038800
s_2_3 + s_2_1 + 1000 r_2_1_3 >= 2
- s_2_3 - s_2_1 - 1000 r_2_1_3 >= -1001
t_2_3 - t_2_1 + 1000.000000 u_2_1_3 - 0.000000 s_2_1  + 0.000000 s_2_8  + 0.000000 s_2_7  + 2000.000000 r_2_1_3 > 21.626779
s_1_3 + s_1_2 + 1000 r_1_2_3 >= 2
- s_1_3 - s_1_2 - 1000 r_1_2_3 >= -1001
t_1_3 - t_1_2 + 1000.000000 u_1_2_3 - 0.000000 s_1_2  + 0.000000 s_1_7  + 2000.000000 r_1_2_3 > 8.782178
s_2_3 + s_2_2 + 1000 r_2_2_3 >= 2
- s_2_3 - s_2_2 - 1000 r_2_2_3 >= -1001
t_2_3 - t_2_2 + 1000.000000 u_2_2_3 - 0.000000 s_2_2  + 0.000000 s_2_7  + 2000.000000 r_2_2_3 > 21.204927
s_1_3 + s_1_4 + 1000 r_1_3_4 >= 2
- s_1_3 - s_1_4 - 1000 r_1_3_4 >= -1001
t_1_3 - t_1_4 - 1000.000000 u_1_3_4 - 0.000000 s_1_4  + 0.000000 s_1_7  + 2000.000000 r_1_3_4 > -998.234489
s_2_3 + s_2_4 + 1000 r_2_3_4 >= 2
- s_2_3 - s_2_4 - 1000 r_2_3_4 >= -1001
t_2_3 - t_2_4 - 1000.000000 u_2_3_4 - 0.000000 s_2_4  + 0.000000 s_2_7  + 2000.000000 r_2_3_4 > -995.115765
s_1_3 + s_1_5 + 1000 r_1_3_5 >= 2
- s_1_3 - s_1_5 - 1000 r_1_3_5 >= -1001
t_1_3 - t_1_5 - 1000.000000 u_1_3_5 - 0.000000 s_1_5  + 0.000000 s_1_8  + 2000.000000 r_1_3_5 > -996.041200
s_2_3 + s_2_5 + 1000 r_2_3_5 >= 2
- s_2_3 - s_2_5 - 1000 r_2_3_5 >= -1001
t_2_3 - t_2_5 - 1000.000000 u_2_3_5 - 0.000000 s_2_5  + 0.000000 s_2_8  + 2000.000000 r_2_3_5 > -990.691421
t_1_6 - t_1_3 - 1000.000000 s_1_3  + 0.000000 s_1_8  > -998.941978
t_1_6 - t_2_3 - 1000.000000 s_2_3  + 0.000000 s_2_8  > -997.406781
t_2_6 - t_1_3 - 1000.000000 s_1_3  + 0.000000 s_1_8  > -998.941978
t_2_6 - t_2_3 - 1000.000000 s_2_3  + 0.000000 s_2_8  > -997.406781
t_1_3 - t_1_7 - 1000.000000 s_1_7  > -987.918400
t_1_3 - t_2_7 - 1000.000000 s_2_7  > -963.798827
t_2_3 - t_1_7 - 1000.000000 s_1_7  > -987.918400
t_2_3 - t_2_7 - 1000.000000 s_2_7  > -963.798827
t_1_3 - t_1_8 - 1000.000000 s_1_8  > -988.185900
t_1_3 - t_2_8 - 1000.000000 s_2_8  > -968.252666
t_2_3 - t_1_8 - 1000.000000 s_1_8  > -988.185900
t_2_3 - t_2_8 - 1000.000000 s_2_8  > -968.252666
s_1_4 + s_1_1 + 1000 r_1_1_4 >= 2
- s_1_4 - s_1_1 - 1000 r_1_1_4 >= -1001
t_1_4 - t_1_1 + 1000.000000 u_1_1_4 - 0.000000 s_1_1  + 0.000000 s_1_8  + 0.000000 s_1_7  + 2000.000000 r_1_1_4 > 9.038800
s_2_4 + s_2_1 + 1000 r_2_1_4 >= 2
- s_2_4 - s_2_1 - 1000 r_2_1_4 >= -1001
t_2_4 - t_2_1 + 1000.000000 u_2_1_4 - 0.000000 s_2_1  + 0.000000 s_2_8  + 0.000000 s_2_7  + 2000.000000 r_2_1_4 > 21.626779
s_1_4 + s_1_2 + 1000 r_1_2_4 >= 2
- s_1_4 - s_1_2 - 1000 r_1_2_4 >= -1001
t_1_4 - t_1_2 + 1000.000000 u_1_2_4 - 0.000000 s_1_2  + 0.000000 s_1_7  + 2000.000000 r_1_2_4 > 8.782178
s_2_4 + s_2_2 + 1000 r_2_2_4 >= 2
- s_2_4 - s_2_2 - 1000 r_2_2_4 >= -1001
t_2_4 - t_2_2 + 1000.000000 u_2_2_4 - 0.000000 s_2_2  + 0.000000 s_2_7  + 2000.000000 r_2_2_4 > 21.204927
s_1_4 + s_1_3 + 1000 r_1_3_4 >= 2
- s_1_4 - s_1_3 - 1000 r_1_3_4 >= -1001
t_1_4 - t_1_3 + 1000.000000 u_1_3_4 - 0.000000 s_1_3  + 0.000000 s_1_8  + 2000.000000 r_1_3_4 > 1.058022
s_2_4 + s_2_3 + 1000 r_2_3_4 >= 2
- s_2_4 - s_2_3 - 1000 r_2_3_4 >= -1001
t_2_4 - t_2_3 + 1000.000000 u_2_3_4 - 0.000000 s_2_3  + 0.000000 s_2_8  + 2000.000000 r_2_3_4 > 2.593219
s_1_4 + s_1_5 + 1000 r_1_4_5 >= 2
- s_1_4 - s_1_5 - 1000 r_1_4_5 >= -1001
t_1_4 - t_1_5 - 1000.000000 u_1_4_5 - 0.000000 s_1_5  + 0.000000 s_1_8  + 2000.000000 r_1_4_5 > -996.041200
s_2_4 + s_2_5 + 1000 r_2_4_5 >= 2
- s_2_4 - s_2_5 - 1000 r_2_4_5 >= -1001
t_2_4 - t_2_5 - 1000.000000 u_2_4_5 - 0.000000 s_2_5  + 0.000000 s_2_8  + 2000.000000 r_2_4_5 > -990.691421
t_1_6 - t_1_4 - 1000.000000 s_1_4  + 0.000000 s_1_7  > -998.234489
t_1_6 - t_2_4 - 1000.000000 s_2_4  + 0.000000 s_2_7  > -995.115765
t_2_6 - t_1_4 - 1000.000000 s_1_4  + 0.000000 s_1_7  > -998.234489
t_2_6 - t_2_4 - 1000.000000 s_2_4  + 0.000000 s_2_7  > -995.115765
t_1_4 - t_1_7 - 1000.000000 s_1_7  > -987.918400
t_1_4 - t_2_7 - 1000.000000 s_2_7  > -963.798827
t_2_4 - t_1_7 - 1000.000000 s_1_7  > -987.918400
t_2_4 - t_2_7 - 1000.000000 s_2_7  > -963.798827
s_1_4 + s_1_8 + 1000 r_1_4_8 >= 2
- s_1_4 - s_1_8 - 1000 r_1_4_8 >= -1001
t_1_4 - t_1_8 - 1000.000000 u_1_4_8 - 0.000000 s_1_8  + 2000.000000 r_1_4_8 > -988.185900
s_2_4 + s_2_8 + 1000 r_2_4_8 >= 2
- s_2_4 - s_2_8 - 1000 r_2_4_8 >= -1001
t_2_4 - t_2_8 - 1000.000000 u_2_4_8 - 0.000000 s_2_8  + 2000.000000 r_2_4_8 > -968.252666
s_1_5 + s_1_1 + 1000 r_1_1_5 >= 2
- s_1_5 - s_1_1 - 1000 r_1_1_5 >= -1001
t_1_5 - t_1_1 + 1000.000000 u_1_1_5 - 0.000000 s_1_1  + 0.000000 s_1_8  + 0.000000 s_1_7  + 2000.000000 r_1_1_5 > 9.038800
s_2_5 + s_2_1 + 1000 r_2_1_5 >= 2
- s_2_5 - s_2_1 - 1000 r_2_1_5 >= -1001
t_2_5 - t_2_1 + 1000.000000 u_2_1_5 - 0.000000 s_2_1  + 0.000000 s_2_8  + 0.000000 s_2_7  + 2000.000000 r_2_1_5 > 21.626779
s_1_5 + s_1_2 + 1000 r_1_2_5 >= 2
- s_1_5 - s_1_2 - 1000 r_1_2_5 >= -1001
t_1_5 - t_1_2 + 1000.000000 u_1_2_5 - 0.000000 s_1_2  + 0.000000 s_1_7  + 2000.000000 r_1_2_5 > 8.782178
s_2_5 + s_2_2 + 1000 r_2_2_5 >= 2
- s_2_5 - s_2_2 - 1000 r_2_2_5 >= -1001
t_2_5 - t_2_2 + 1000.000000 u_2_2_5 - 0.000000 s_2_2  + 0.000000 s_2_7  + 2000.000000 r_2_2_5 > 21.204927
s_1_5 + s_1_3 + 1000 r_1_3_5 >= 2
- s_1_5 - s_1_3 - 1000 r_1_3_5 >= -1001
t_1_5 - t_1_3 + 1000.000000 u_1_3_5 - 0.000000 s_1_3  + 0.000000 s_1_8  + 2000.000000 r_1_3_5 > 1.058022
s_2_5 + s_2_3 + 1000 r_2_3_5 >= 2
- s_2_5 - s_2_3 - 1000 r_2_3_5 >= -1001
t_2_5 - t_2_3 + 1000.000000 u_2_3_5 - 0.000000 s_2_3  + 0.000000 s_2_8  + 2000.000000 r_2_3_5 > 2.593219
s_1_5 + s_1_4 + 1000 r_1_4_5 >= 2
- s_1_5 - s_1_4 - 1000 r_1_4_5 >= -1001
t_1_5 - t_1_4 + 1000.000000 u_1_4_5 - 0.000000 s_1_4  + 0.000000 s_1_7  + 2000.000000 r_1_4_5 > 1.765511
s_2_5 + s_2_4 + 1000 r_2_4_5 >= 2
- s_2_5 - s_2_4 - 1000 r_2_4_5 >= -1001
t_2_5 - t_2_4 + 1000.000000 u_2_4_5 - 0.000000 s_2_4  + 0.000000 s_2_7  + 2000.000000 r_2_4_5 > 4.884235
t_1_6 - t_1_5 - 1000.000000 s_1_5  + 0.000000 s_1_8  > -996.041200
t_1_6 - t_2_5 - 1000.000000 s_2_5  + 0.000000 s_2_8  > -990.691421
t_2_6 - t_1_5 - 1000.000000 s_1_5  + 0.000000 s_1_8  > -996.041200
t_2_6 - t_2_5 - 1000.000000 s_2_5  + 0.000000 s_2_8  > -990.691421
s_1_5 + s_1_7 + 1000 r_1_5_7 >= 2
- s_1_5 - s_1_7 - 1000 r_1_5_7 >= -1001
t_1_5 - t_1_7 - 1000.000000 u_1_5_7 - 0.000000 s_1_7  + 2000.000000 r_1_5_7 > -987.918400
s_2_5 + s_2_7 + 1000 r_2_5_7 >= 2
- s_2_5 - s_2_7 - 1000 r_2_5_7 >= -1001
t_2_5 - t_2_7 - 1000.000000 u_2_5_7 - 0.000000 s_2_7  + 2000.000000 r_2_5_7 > -963.798827
t_1_5 - t_1_8 - 1000.000000 s_1_8  > -988.185900
t_1_5 - t_2_8 - 1000.000000 s_2_8  > -968.252666
t_2_5 - t_1_8 - 1000.000000 s_1_8  > -988.185900
t_2_5 - t_2_8 - 1000.000000 s_2_8  > -968.252666
t_1_6 - t_1_7 - 1000.000000 s_1_7  > -987.918400
t_1_6 - t_2_7 - 1000.000000 s_2_7  > -963.798827
t_2_6 - t_1_7 - 1000.000000 s_1_7  > -987.918400
t_2_6 - t_2_7 - 1000.000000 s_2_7  > -963.798827
s_1_7 + s_1_5 + 1000 r_1_5_7 >= 2
- s_1_7 - s_1_5 - 1000 r_1_5_7 >= -1001
t_1_7 - t_1_5 + 1000.000000 u_1_5_7 - 0.000000 s_1_5  + 0.000000 s_1_8  + 2000.000000 r_1_5_7 > 3.958800
s_2_7 + s_2_5 + 1000 r_2_5_7 >= 2
- s_2_7 - s_2_5 - 1000 r_2_5_7 >= -1001
t_2_7 - t_2_5 + 1000.000000 u_2_5_7 - 0.000000 s_2_5  + 0.000000 s_2_8  + 2000.000000 r_2_5_7 > 9.308579
s_1_7 + s_1_8 + 1000 r_1_7_8 >= 2
- s_1_7 - s_1_8 - 1000 r_1_7_8 >= -1001
t_1_7 - t_1_8 - 1000.000000 u_1_7_8 - 0.000000 s_1_8  + 2000.000000 r_1_7_8 > -988.185900
s_2_7 + s_2_8 + 1000 r_2_7_8 >= 2
- s_2_7 - s_2_8 - 1000 r_2_7_8 >= -1001
t_2_7 - t_2_8 - 1000.000000 u_2_7_8 - 0.000000 s_2_8  + 2000.000000 r_2_7_8 > -968.252666
s_1_8 + s_1_2 + 1000 r_1_2_8 >= 2
- s_1_8 - s_1_2 - 1000 r_1_2_8 >= -1001
t_1_8 - t_1_2 + 1000.000000 u_1_2_8 - 0.000000 s_1_2  + 0.000000 s_1_7  + 2000.000000 r_1_2_8 > 8.782178
s_2_8 + s_2_2 + 1000 r_2_2_8 >= 2
- s_2_8 - s_2_2 - 1000 r_2_2_8 >= -1001
t_2_8 - t_2_2 + 1000.000000 u_2_2_8 - 0.000000 s_2_2  + 0.000000 s_2_7  + 2000.000000 r_2_2_8 > 21.204927
s_1_8 + s_1_4 + 1000 r_1_4_8 >= 2
- s_1_8 - s_1_4 - 1000 r_1_4_8 >= -1001
t_1_8 - t_1_4 + 1000.000000 u_1_4_8 - 0.000000 s_1_4  + 0.000000 s_1_7  + 2000.000000 r_1_4_8 > 1.765511
s_2_8 + s_2_4 + 1000 r_2_4_8 >= 2
- s_2_8 - s_2_4 - 1000 r_2_4_8 >= -1001
t_2_8 - t_2_4 + 1000.000000 u_2_4_8 - 0.000000 s_2_4  + 0.000000 s_2_7  + 2000.000000 r_2_4_8 > 4.884235
s_1_8 + s_1_7 + 1000 r_1_7_8 >= 2
- s_1_8 - s_1_7 - 1000 r_1_7_8 >= -1001
t_1_8 - t_1_7 + 1000.000000 u_1_7_8 - 0.000000 s_1_7  + 2000.000000 r_1_7_8 > 12.081600
s_2_8 + s_2_7 + 1000 r_2_7_8 >= 2
- s_2_8 - s_2_7 - 1000 r_2_7_8 >= -1001
t_2_8 - t_2_7 + 1000.000000 u_2_7_8 - 0.000000 s_2_7  + 2000.000000 r_2_7_8 > 36.201173
Binary
s_1_1
s_2_1
s_1_2
s_2_2
s_1_3
s_2_3
s_1_4
s_2_4
s_1_5
s_2_5
s_1_6
s_2_6
s_1_7
s_2_7
s_1_8
s_2_8
u_1_1_2
r_1_1_2
u_2_1_2
r_2_1_2
u_1_1_3
r_1_1_3
u_2_1_3
r_2_1_3
u_1_1_4
r_1_1_4
u_2_1_4
r_2_1_4
u_1_1_5
r_1_1_5
u_2_1_5
r_2_1_5
u_1_2_3
r_1_2_3
u_2_2_3
r_2_2_3
u_1_2_4
r_1_2_4
u_2_2_4
r_2_2_4
u_1_2_5
r_1_2_5
u_2_2_5
r_2_2_5
u_1_2_8
r_1_2_8
u_2_2_8
r_2_2_8
u_1_3_4
r_1_3_4
u_2_3_4
r_2_3_4
u_1_3_5
r_1_3_5
u_2_3_5
r_2_3_5
u_1_4_5
r_1_4_5
u_2_4_5
r_2_4_5
u_1_4_8
r_1_4_8
u_2_4_8
r_2_4_8
u_1_5_7
r_1_5_7
u_2_5_7
r_2_5_7
u_1_7_8
r_1_7_8
u_2_7_8
r_2_7_8

End
